feasible solution found by trivial heuristic after 0.0 seconds, objective value 0.000000e+00
presolving:
   (0.0s) running MILP presolver
   (0.0s) MILP presolver (2 rounds): 0 aggregations, 1 fixings, 0 bound changes
(round 1, medium)     1 del vars, 0 del conss, 0 add conss, 0 chg bounds, 0 chg sides, 0 chg coeffs, 0 upgd conss, 0 impls, 282 clqs
(round 2, exhaustive) 1 del vars, 10 del conss, 0 add conss, 0 chg bounds, 10 chg sides, 0 chg coeffs, 0 upgd conss, 0 impls, 282 clqs
(round 3, exhaustive) 1 del vars, 10 del conss, 0 add conss, 0 chg bounds, 10 chg sides, 0 chg coeffs, 272 upgd conss, 0 impls, 282 clqs
(round 4, medium)     13 del vars, 10 del conss, 0 add conss, 0 chg bounds, 10 chg sides, 12 chg coeffs, 272 upgd conss, 0 impls, 282 clqs
   (0.1s) probing: 51/737 (6.9%) - 0 fixings, 0 aggregations, 0 implications, 0 bound changes
   (0.1s) probing aborted: 50/50 successive totally useless probings
   (0.1s) symmetry computation started: requiring (bin +, int -, cont +), (fixed: bin -, int +, cont -)
   (0.1s) no symmetry present
presolving (5 rounds: 5 fast, 5 medium, 3 exhaustive):
 13 deleted vars, 10 deleted constraints, 0 added constraints, 0 tightened bounds, 0 added holes, 10 changed sides, 12 changed coefficients
 0 implications, 282 cliques
presolved problem has 737 variables (737 bin, 0 int, 0 impl, 0 cont) and 272 constraints
    272 constraints of type <setppc>
Presolving Time: 0.06
transformed 1/1 original solutions to the transformed problem space

 time | node  | left  |LP iter|LP it/n|mem/heur|mdpt |vars |cons |rows |cuts |sepa|confs|strbr|  dualbound   | primalbound  |  gap   | compl. 
p 0.1s|     1 |     0 |     0 |     - |  clique|   0 | 737 | 272 | 272 |   0 |  0 |   0 |   0 | 6.139244e+05 | 6.174920e+03 |9842.23%| unknown
p 0.1s|     1 |     0 |   433 |     - | vbounds|   0 | 737 | 272 | 272 |   0 |  0 |   0 |   0 | 6.139244e+05 | 6.454394e+03 |9411.73%| unknown
  0.6s|     1 |     0 |  5602 |     - |    10M |   0 | 737 | 272 | 272 |   0 |  0 |   0 |   0 | 1.021517e+04 | 6.454394e+03 |  58.27%| unknown
  0.7s|     1 |     0 |  5721 |     - |    16M |   0 | 737 | 272 | 273 |   1 |  1 |   0 |   0 | 1.017624e+04 | 6.454394e+03 |  57.66%| unknown
  0.9s|     1 |     0 |  5793 |     - |    21M |   0 | 737 | 272 | 275 |   3 |  2 |   0 |   0 | 1.016281e+04 | 6.454394e+03 |  57.46%| unknown
  1.1s|     1 |     0 |  5892 |     - |    25M |   0 | 737 | 272 | 276 |   4 |  3 |   0 |   0 | 1.014629e+04 | 6.454394e+03 |  57.20%| unknown
  1.3s|     1 |     0 |  5992 |     - |    30M |   0 | 737 | 272 | 278 |   6 |  4 |   0 |   0 | 1.013905e+04 | 6.454394e+03 |  57.09%| unknown
  1.5s|     1 |     0 |  6051 |     - |    33M |   0 | 737 | 272 | 281 |   9 |  5 |   0 |   0 | 1.012654e+04 | 6.454394e+03 |  56.89%| unknown
  1.7s|     1 |     0 |  6125 |     - |    38M |   0 | 737 | 272 | 283 |  11 |  6 |   0 |   0 | 1.011361e+04 | 6.454394e+03 |  56.69%| unknown
  1.9s|     1 |     0 |  6220 |     - |    42M |   0 | 737 | 272 | 285 |  13 |  7 |   0 |   0 | 1.010073e+04 | 6.454394e+03 |  56.49%| unknown
  2.1s|     1 |     0 |  6264 |     - |    47M |   0 | 737 | 272 | 289 |  17 |  8 |   0 |   0 | 1.009500e+04 | 6.454394e+03 |  56.41%| unknown
  2.3s|     1 |     0 |  6306 |     - |    50M |   0 | 737 | 272 | 290 |  18 |  9 |   0 |   0 | 1.009030e+04 | 6.454394e+03 |  56.33%| unknown
  2.5s|     1 |     0 |  6384 |     - |    54M |   0 | 737 | 272 | 292 |  20 | 10 |   0 |   0 | 1.007962e+04 | 6.454394e+03 |  56.17%| unknown
  2.6s|     1 |     0 |  6494 |     - |    54M |   0 | 737 | 272 | 297 |  25 | 11 |   0 |   0 | 1.007181e+04 | 6.454394e+03 |  56.05%| unknown
  2.7s|     1 |     0 |  6608 |     - |    54M |   0 | 737 | 272 | 303 |  31 | 12 |   0 |   0 | 1.005985e+04 | 6.454394e+03 |  55.86%| unknown
 time | node  | left  |LP iter|LP it/n|mem/heur|mdpt |vars |cons |rows |cuts |sepa|confs|strbr|  dualbound   | primalbound  |  gap   | compl. 
  2.7s|     1 |     0 |  6697 |     - |    54M |   0 | 737 | 272 | 305 |  33 | 13 |   0 |   0 | 1.005204e+04 | 6.454394e+03 |  55.74%| unknown
  2.8s|     1 |     0 |  6754 |     - |    54M |   0 | 737 | 272 | 310 |  38 | 14 |   0 |   0 | 1.004513e+04 | 6.454394e+03 |  55.63%| unknown
  2.8s|     1 |     0 |  6786 |     - |    55M |   0 | 737 | 272 | 314 |  42 | 15 |   0 |   0 | 1.004393e+04 | 6.454394e+03 |  55.61%| unknown
  2.9s|     1 |     0 |  6815 |     - |    55M |   0 | 737 | 272 | 317 |  45 | 16 |   0 |   0 | 1.004055e+04 | 6.454394e+03 |  55.56%| unknown
  3.0s|     1 |     0 |  6889 |     - |    55M |   0 | 737 | 272 | 324 |  52 | 17 |   0 |   0 | 1.003360e+04 | 6.454394e+03 |  55.45%| unknown
  3.0s|     1 |     0 |  6941 |     - |    55M |   0 | 737 | 272 | 327 |  55 | 18 |   0 |   0 | 1.002999e+04 | 6.454394e+03 |  55.40%| unknown
  3.1s|     1 |     0 |  7017 |     - |    55M |   0 | 737 | 272 | 329 |  57 | 19 |   0 |   0 | 1.002431e+04 | 6.454394e+03 |  55.31%| unknown
  3.2s|     1 |     0 |  7056 |     - |    55M |   0 | 737 | 272 | 332 |  60 | 20 |   0 |   0 | 1.001793e+04 | 6.454394e+03 |  55.21%| unknown
  3.2s|     1 |     0 |  7115 |     - |    55M |   0 | 737 | 272 | 334 |  62 | 21 |   0 |   0 | 1.001081e+04 | 6.454394e+03 |  55.10%| unknown
  3.3s|     1 |     0 |  7200 |     - |    55M |   0 | 737 | 272 | 333 |  65 | 22 |   0 |   0 | 1.000613e+04 | 6.454394e+03 |  55.03%| unknown
  3.3s|     1 |     0 |  7320 |     - |    55M |   0 | 737 | 272 | 338 |  70 | 23 |   0 |   0 | 1.000027e+04 | 6.454394e+03 |  54.94%| unknown
  3.4s|     1 |     0 |  7399 |     - |    55M |   0 | 737 | 272 | 340 |  72 | 24 |   0 |   0 | 9.998373e+03 | 6.454394e+03 |  54.91%| unknown
  3.4s|     1 |     0 |  7453 |     - |    55M |   0 | 737 | 272 | 343 |  75 | 25 |   0 |   0 | 9.996029e+03 | 6.454394e+03 |  54.87%| unknown
  3.5s|     1 |     0 |  7490 |     - |    55M |   0 | 737 | 272 | 346 |  78 | 26 |   0 |   0 | 9.994897e+03 | 6.454394e+03 |  54.85%| unknown
  3.5s|     1 |     0 |  7561 |     - |    55M |   0 | 737 | 272 | 352 |  84 | 27 |   0 |   0 | 9.991276e+03 | 6.454394e+03 |  54.80%| unknown
 time | node  | left  |LP iter|LP it/n|mem/heur|mdpt |vars |cons |rows |cuts |sepa|confs|strbr|  dualbound   | primalbound  |  gap   | compl. 
  3.5s|     1 |     0 |  7585 |     - |    55M |   0 | 737 | 272 | 347 |  85 | 28 |   0 |   0 | 9.989934e+03 | 6.454394e+03 |  54.78%| unknown
  3.6s|     1 |     0 |  7670 |     - |    55M |   0 | 737 | 272 | 350 |  88 | 29 |   0 |   0 | 9.987570e+03 | 6.454394e+03 |  54.74%| unknown
  3.6s|     1 |     0 |  7764 |     - |    55M |   0 | 737 | 272 | 354 |  92 | 30 |   0 |   0 | 9.983912e+03 | 6.454394e+03 |  54.68%| unknown
  3.6s|     1 |     0 |  7821 |     - |    55M |   0 | 737 | 272 | 357 |  95 | 31 |   0 |   0 | 9.982898e+03 | 6.454394e+03 |  54.67%| unknown
  3.7s|     1 |     0 |  7916 |     - |    55M |   0 | 737 | 272 | 360 |  98 | 32 |   0 |   0 | 9.976633e+03 | 6.454394e+03 |  54.57%| unknown
  3.7s|     1 |     0 |  7957 |     - |    55M |   0 | 737 | 272 | 366 | 104 | 33 |   0 |   0 | 9.974816e+03 | 6.454394e+03 |  54.54%| unknown
  3.7s|     1 |     0 |  8020 |     - |    55M |   0 | 737 | 272 | 360 | 110 | 34 |   0 |   0 | 9.972864e+03 | 6.454394e+03 |  54.51%| unknown
  3.8s|     1 |     0 |  8113 |     - |    55M |   0 | 737 | 272 | 367 | 117 | 35 |   0 |   0 | 9.971324e+03 | 6.454394e+03 |  54.49%| unknown
  3.8s|     1 |     0 |  8180 |     - |    55M |   0 | 737 | 272 | 372 | 122 | 36 |   0 |   0 | 9.969821e+03 | 6.454394e+03 |  54.47%| unknown
  3.8s|     1 |     0 |  8251 |     - |    55M |   0 | 737 | 272 | 379 | 129 | 37 |   0 |   0 | 9.968958e+03 | 6.454394e+03 |  54.45%| unknown
  3.8s|     1 |     0 |  8309 |     - |    55M |   0 | 737 | 272 | 383 | 133 | 38 |   0 |   0 | 9.968227e+03 | 6.454394e+03 |  54.44%| unknown
  3.9s|     1 |     0 |  8387 |     - |    55M |   0 | 737 | 272 | 387 | 137 | 39 |   0 |   0 | 9.965752e+03 | 6.454394e+03 |  54.40%| unknown
  3.9s|     1 |     0 |  8530 |     - |    56M |   0 | 737 | 272 | 387 | 143 | 40 |   0 |   0 | 9.962795e+03 | 6.454394e+03 |  54.36%| unknown
  4.0s|     1 |     0 |  8604 |     - |    56M |   0 | 737 | 272 | 390 | 146 | 41 |   0 |   0 | 9.961502e+03 | 6.454394e+03 |  54.34%| unknown
  4.0s|     1 |     0 |  8677 |     - |    56M |   0 | 737 | 272 | 393 | 149 | 42 |   0 |   0 | 9.960622e+03 | 6.454394e+03 |  54.32%| unknown
 time | node  | left  |LP iter|LP it/n|mem/heur|mdpt |vars |cons |rows |cuts |sepa|confs|strbr|  dualbound   | primalbound  |  gap   | compl. 
  4.0s|     1 |     0 |  8742 |     - |    56M |   0 | 737 | 272 | 396 | 152 | 43 |   0 |   0 | 9.958268e+03 | 6.454394e+03 |  54.29%| unknown
  4.1s|     1 |     0 |  8798 |     - |    56M |   0 | 737 | 272 | 400 | 156 | 44 |   0 |   0 | 9.957579e+03 | 6.454394e+03 |  54.28%| unknown
  4.1s|     1 |     0 |  8811 |     - |    56M |   0 | 737 | 272 | 402 | 158 | 45 |   0 |   0 | 9.957504e+03 | 6.454394e+03 |  54.27%| unknown
  4.1s|     1 |     0 |  8918 |     - |    57M |   0 | 737 | 272 | 391 | 163 | 46 |   0 |   0 | 9.956056e+03 | 6.454394e+03 |  54.25%| unknown
  4.1s|     1 |     0 |  8955 |     - |    57M |   0 | 737 | 272 | 395 | 167 | 47 |   0 |   0 | 9.954251e+03 | 6.454394e+03 |  54.22%| unknown
  4.2s|     1 |     0 |  9069 |     - |    57M |   0 | 737 | 272 | 402 | 174 | 48 |   0 |   0 | 9.951188e+03 | 6.454394e+03 |  54.18%| unknown
  4.2s|     1 |     0 |  9150 |     - |    57M |   0 | 737 | 272 | 406 | 178 | 49 |   0 |   0 | 9.949855e+03 | 6.454394e+03 |  54.16%| unknown
  4.3s|     1 |     0 |  9240 |     - |    57M |   0 | 737 | 272 | 409 | 181 | 50 |   0 |   0 | 9.948015e+03 | 6.454394e+03 |  54.13%| unknown
  4.3s|     1 |     0 |  9295 |     - |    57M |   0 | 737 | 272 | 411 | 183 | 51 |   0 |   0 | 9.947023e+03 | 6.454394e+03 |  54.11%| unknown
  4.3s|     1 |     0 |  9370 |     - |    57M |   0 | 737 | 272 | 404 | 189 | 52 |   0 |   0 | 9.945599e+03 | 6.454394e+03 |  54.09%| unknown
  4.4s|     1 |     0 |  9492 |     - |    57M |   0 | 737 | 272 | 409 | 194 | 53 |   0 |   0 | 9.942846e+03 | 6.454394e+03 |  54.05%| unknown
  4.4s|     1 |     0 |  9514 |     - |    57M |   0 | 737 | 272 | 410 | 195 | 54 |   0 |   0 | 9.942595e+03 | 6.454394e+03 |  54.04%| unknown
  4.4s|     1 |     0 |  9567 |     - |    57M |   0 | 737 | 272 | 417 | 202 | 55 |   0 |   0 | 9.941406e+03 | 6.454394e+03 |  54.03%| unknown
  4.5s|     1 |     0 |  9600 |     - |    57M |   0 | 737 | 272 | 420 | 205 | 56 |   0 |   0 | 9.940619e+03 | 6.454394e+03 |  54.01%| unknown
  4.5s|     1 |     0 |  9649 |     - |    57M |   0 | 737 | 272 | 423 | 208 | 57 |   0 |   0 | 9.939814e+03 | 6.454394e+03 |  54.00%| unknown
 time | node  | left  |LP iter|LP it/n|mem/heur|mdpt |vars |cons |rows |cuts |sepa|confs|strbr|  dualbound   | primalbound  |  gap   | compl. 
  4.6s|     1 |     0 |  9717 |     - |    57M |   0 | 737 | 272 | 418 | 213 | 58 |   0 |   0 | 9.938764e+03 | 6.454394e+03 |  53.98%| unknown
  4.6s|     1 |     0 |  9807 |     - |    57M |   0 | 737 | 272 | 424 | 219 | 59 |   0 |   0 | 9.937854e+03 | 6.454394e+03 |  53.97%| unknown
  4.6s|     1 |     0 |  9861 |     - |    57M |   0 | 737 | 272 | 429 | 224 | 60 |   0 |   0 | 9.937176e+03 | 6.454394e+03 |  53.96%| unknown
  4.7s|     1 |     0 |  9985 |     - |    57M |   0 | 737 | 272 | 433 | 228 | 61 |   0 |   0 | 9.934318e+03 | 6.454394e+03 |  53.92%| unknown
  4.7s|     1 |     0 | 10049 |     - |    57M |   0 | 737 | 272 | 436 | 231 | 62 |   0 |   0 | 9.933861e+03 | 6.454394e+03 |  53.91%| unknown
  4.8s|     1 |     0 | 10087 |     - |    57M |   0 | 737 | 272 | 438 | 233 | 63 |   0 |   0 | 9.933209e+03 | 6.454394e+03 |  53.90%| unknown
  4.8s|     1 |     0 | 10157 |     - |    57M |   0 | 737 | 272 | 420 | 236 | 64 |   0 |   0 | 9.932256e+03 | 6.454394e+03 |  53.88%| unknown
  4.9s|     1 |     0 | 10258 |     - |    57M |   0 | 737 | 272 | 423 | 239 | 65 |   0 |   0 | 9.931227e+03 | 6.454394e+03 |  53.87%| unknown
  4.9s|     1 |     0 | 10315 |     - |    57M |   0 | 737 | 272 | 426 | 242 | 66 |   0 |   0 | 9.930712e+03 | 6.454394e+03 |  53.86%| unknown
  4.9s|     1 |     0 | 10351 |     - |    57M |   0 | 737 | 272 | 428 | 244 | 67 |   0 |   0 | 9.930518e+03 | 6.454394e+03 |  53.86%| unknown
  5.0s|     1 |     0 | 10404 |     - |    57M |   0 | 737 | 272 | 437 | 253 | 68 |   0 |   0 | 9.929724e+03 | 6.454394e+03 |  53.84%| unknown
  5.0s|     1 |     0 | 10449 |     - |    57M |   0 | 737 | 272 | 442 | 258 | 69 |   0 |   0 | 9.929213e+03 | 6.454394e+03 |  53.84%| unknown
  5.1s|     1 |     0 | 10504 |     - |    57M |   0 | 737 | 272 | 427 | 261 | 70 |   0 |   0 | 9.928961e+03 | 6.454394e+03 |  53.83%| unknown
  5.1s|     1 |     0 | 10552 |     - |    57M |   0 | 737 | 272 | 430 | 264 | 71 |   0 |   0 | 9.928876e+03 | 6.454394e+03 |  53.83%| unknown
  5.1s|     1 |     0 | 10574 |     - |    57M |   0 | 737 | 272 | 432 | 266 | 72 |   0 |   0 | 9.928820e+03 | 6.454394e+03 |  53.83%| unknown
 time | node  | left  |LP iter|LP it/n|mem/heur|mdpt |vars |cons |rows |cuts |sepa|confs|strbr|  dualbound   | primalbound  |  gap   | compl. 
  5.2s|     1 |     0 | 10596 |     - |    57M |   0 | 737 | 272 | 434 | 268 | 73 |   0 |   0 | 9.928768e+03 | 6.454394e+03 |  53.83%| unknown
  5.2s|     1 |     0 | 10645 |     - |    57M |   0 | 737 | 272 | 435 | 269 | 74 |   0 |   0 | 9.928538e+03 | 6.454394e+03 |  53.83%| unknown
  5.3s|     1 |     0 | 10671 |     - |    57M |   0 | 737 | 272 | 437 | 271 | 75 |   0 |   0 | 9.928460e+03 | 6.454394e+03 |  53.82%| unknown
d 5.4s|     1 |     0 | 12138 |     - |farkasdi|   0 | 737 | 272 | 437 |   0 | 75 |   0 |   0 | 9.928460e+03 | 7.828237e+03 |  26.83%| unknown
L 7.0s|     1 |     0 | 12138 |     - |    rens|   0 | 737 | 272 | 437 | 271 | 75 |   0 |   0 | 9.928460e+03 | 8.621127e+03 |  15.16%| unknown
  7.0s|     1 |     0 | 12138 |     - |    57M |   0 | 737 | 272 | 437 | 271 | 75 |   0 |   0 | 9.928460e+03 | 8.621127e+03 |  15.16%| unknown
  7.0s|     1 |     0 | 12138 |     - |    57M |   0 | 737 | 272 | 437 | 271 | 75 |   0 |   0 | 9.928460e+03 | 8.621127e+03 |  15.16%| unknown
  7.0s|     1 |     0 | 12157 |     - |    57M |   0 | 737 | 272 | 438 | 272 | 76 |   0 |   0 | 9.928418e+03 | 8.621127e+03 |  15.16%| unknown
  7.1s|     1 |     0 | 12177 |     - |    57M |   0 | 737 | 272 | 439 | 273 | 77 |   0 |   0 | 9.928383e+03 | 8.621127e+03 |  15.16%| unknown
 11.8s|     1 |     2 | 12177 |     - |    57M |   0 | 737 | 272 | 439 | 273 | 77 |   0 |  54 | 9.890099e+03 | 8.621127e+03 |  14.72%| unknown
*14.6s|    16 |     3 | 14865 | 305.9 |strongbr|   9 | 737 | 278 | 376 | 273 |  2 |   6 | 314 | 9.890099e+03 | 8.787730e+03 |  12.54%|  11.88%
*15.0s|    18 |     3 | 15087 | 282.9 |    LP  |  10 | 737 | 279 | 377 | 274 |  2 |   7 | 388 | 9.890099e+03 | 8.810238e+03 |  12.26%|  14.13%
*15.4s|    22 |     3 | 15442 | 246.0 |strongbr|  12 | 737 | 279 | 386 | 285 |  1 |   7 | 411 | 9.890099e+03 | 8.834723e+03 |  11.95%|  17.66%
 23.1s|   100 |    17 | 31155 | 210.9 |    58M |  14 | 737 | 313 | 384 | 337 |  0 |  41 | 791 | 9.806809e+03 | 8.834723e+03 |  11.00%|  31.01%
 25.6s|   200 |    31 | 47506 | 187.1 |    64M |  23 | 737 | 323 | 386 | 377 |  1 |  51 | 847 | 9.762598e+03 | 8.834723e+03 |  10.50%|  32.19%
 time | node  | left  |LP iter|LP it/n|mem/heur|mdpt |vars |cons |rows |cuts |sepa|confs|strbr|  dualbound   | primalbound  |  gap   | compl. 
 27.6s|   300 |    45 | 60445 | 167.8 |    65M |  28 | 737 | 328 | 385 | 393 |  1 |  56 | 883 | 9.712015e+03 | 8.834723e+03 |   9.93%|  42.25%
 28.8s|   400 |    53 | 69393 | 148.2 |    65M |  32 | 737 | 333 | 381 | 403 |  0 |  61 | 916 | 9.706375e+03 | 8.834723e+03 |   9.87%|  42.43%
 30.5s|   500 |    65 | 81138 | 142.0 |    65M |  39 | 737 | 339 | 399 | 415 |  0 |  67 | 955 | 9.680687e+03 | 8.834723e+03 |   9.58%|  43.98%
 31.4s|   600 |    71 | 88874 | 131.2 |    65M |  42 | 737 | 342 | 384 | 419 |  0 |  70 | 969 | 9.680687e+03 | 8.834723e+03 |   9.58%|  46.27%
 32.4s|   700 |    75 | 96753 | 123.7 |    64M |  42 | 737 | 344 | 399 | 430 |  0 |  72 | 998 | 9.680687e+03 | 8.834723e+03 |   9.58%|  46.36%
 35.5s|   800 |   103 |111629 | 126.8 |    78M |  46 | 737 | 348 | 377 | 471 |  1 |  76 |1033 | 9.661966e+03 | 8.834723e+03 |   9.36%|  47.85%
 37.3s|   900 |   121 |125007 | 127.6 |    78M |  54 | 737 | 353 | 400 | 477 |  1 |  81 |1084 | 9.660928e+03 | 8.834723e+03 |   9.35%|  48.24%
 38.6s|  1000 |   137 |138730 | 128.6 |    78M |  67 | 737 | 362 | 400 | 478 |  0 |  90 |1140 | 9.660928e+03 | 8.834723e+03 |   9.35%|  48.24%
 40.6s|  1100 |   149 |150895 | 128.0 |    78M |  72 | 737 | 366 | 383 | 503 |  0 |  94 |1189 | 9.597496e+03 | 8.834723e+03 |   8.63%|  49.98%
 41.7s|  1200 |   161 |160174 | 125.0 |    78M |  72 | 737 | 370 | 380 | 505 |  0 |  98 |1250 | 9.597496e+03 | 8.834723e+03 |   8.63%|  49.98%
 42.8s|  1300 |   175 |170746 | 123.5 |    78M |  73 | 737 | 375 | 383 | 513 |  1 | 103 |1281 | 9.596921e+03 | 8.834723e+03 |   8.63%|  50.00%
 43.8s|  1400 |   189 |181125 | 122.1 |    79M |  73 | 737 | 385 | 400 | 516 |  1 | 113 |1318 | 9.596921e+03 | 8.834723e+03 |   8.63%|  50.00%
 45.3s|  1500 |   201 |193096 | 122.0 |    79M |  74 | 737 | 394 | 382 | 527 |  0 | 122 |1372 | 9.572559e+03 | 8.834723e+03 |   8.35%|  51.13%
 46.1s|  1600 |   213 |201950 | 119.9 |    79M |  74 | 737 | 398 | 383 | 528 |  1 | 126 |1401 | 9.572559e+03 | 8.834723e+03 |   8.35%|  51.13%
*46.8s|  1667 |   220 |208584 | 119.0 |    LP  |  81 | 737 | 405 | 400 | 528 |  1 | 133 |1429 | 9.563809e+03 | 8.835303e+03 |   8.25%|  51.37%
 time | node  | left  |LP iter|LP it/n|mem/heur|mdpt |vars |cons |rows |cuts |sepa|confs|strbr|  dualbound   | primalbound  |  gap   | compl. 
 47.1s|  1700 |   223 |211337 | 118.3 |    79M |  85 | 737 | 409 | 400 | 529 |  0 | 137 |1442 | 9.563809e+03 | 8.835303e+03 |   8.25%|  51.41%
 48.1s|  1800 |   231 |220363 | 116.8 |    79M |  86 | 737 | 421 | 401 | 536 |  3 | 149 |1494 | 9.563809e+03 | 8.835303e+03 |   8.25%|  51.66%
 48.8s|  1900 |   237 |226295 | 113.8 |    80M |  87 | 737 | 427 | 400 | 536 |  1 | 155 |1526 | 9.562447e+03 | 8.835303e+03 |   8.23%|  51.86%
 49.6s|  2000 |   243 |234948 | 112.4 |    80M |  91 | 737 | 433 | 399 | 539 |  0 | 161 |1561 | 9.562447e+03 | 8.835303e+03 |   8.23%|  52.09%
 50.8s|  2100 |   251 |243257 | 111.0 |    80M |  91 | 737 | 437 | 399 | 550 |  1 | 165 |1607 | 9.530470e+03 | 8.835303e+03 |   7.87%|  52.46%
 51.8s|  2200 |   257 |251156 | 109.5 |    80M |  91 | 737 | 441 | 381 | 555 |  0 | 169 |1664 | 9.530470e+03 | 8.835303e+03 |   7.87%|  52.56%
 54.0s|  2300 |   261 |259518 | 108.4 |    81M |  91 | 737 | 444 | 386 | 591 |  0 | 172 |1715 | 9.517534e+03 | 8.835303e+03 |   7.72%|  53.04%
 55.2s|  2400 |   267 |266754 | 106.9 |    82M |  91 | 737 | 449 | 400 | 606 |  0 | 177 |1752 | 9.513792e+03 | 8.835303e+03 |   7.68%|  53.27%
 56.5s|  2500 |   277 |275390 | 106.1 |    83M |  91 | 737 | 455 | 380 | 617 |  0 | 183 |1807 | 9.505418e+03 | 8.835303e+03 |   7.58%|  53.41%
*57.1s|  2550 |   278 |280600 | 106.1 |    LP  |  91 | 737 | 462 | 403 | 617 |  1 | 190 |1848 | 9.505418e+03 | 8.844052e+03 |   7.48%|  53.49%
 57.7s|  2600 |   280 |283745 | 105.2 |    84M |  91 | 737 | 468 | 382 | 624 |  0 | 196 |1872 | 9.497965e+03 | 8.844052e+03 |   7.39%|  53.59%
 58.7s|  2700 |   286 |292159 | 104.4 |    84M |  91 | 737 | 481 | 385 | 627 |  1 | 209 |1930 | 9.497965e+03 | 8.844052e+03 |   7.39%|  53.87%
 59.6s|  2800 |   290 |298614 | 103.0 |    84M |  91 | 737 | 485 | 400 | 636 |  0 | 213 |1967 | 9.478873e+03 | 8.844052e+03 |   7.18%|  54.09%
 60.3s|  2900 |   298 |304537 | 101.5 |    84M |  91 | 737 | 490 | 396 | 636 |  1 | 219 |2003 | 9.467800e+03 | 8.844052e+03 |   7.05%|  54.36%
 61.3s|  3000 |   304 |311558 | 100.5 |    85M |  91 | 737 | 498 | 400 | 643 |  2 | 227 |2051 | 9.464828e+03 | 8.844052e+03 |   7.02%|  54.51%
 time | node  | left  |LP iter|LP it/n|mem/heur|mdpt |vars |cons |rows |cuts |sepa|confs|strbr|  dualbound   | primalbound  |  gap   | compl. 
 62.0s|  3100 |   308 |317779 |  99.2 |    85M |  94 | 737 | 508 | 400 | 647 |  0 | 237 |2108 | 9.464828e+03 | 8.844052e+03 |   7.02%|  54.65%
 62.9s|  3200 |   316 |325842 |  98.6 |    85M |  95 | 737 | 521 | 383 | 649 |  0 | 251 |2166 | 9.457053e+03 | 8.844052e+03 |   6.93%|  54.78%
 63.7s|  3300 |   320 |333169 |  97.9 |    85M |  95 | 737 | 532 | 400 | 650 |  0 | 262 |2234 | 9.451857e+03 | 8.844052e+03 |   6.87%|  55.16%
 64.6s|  3400 |   326 |339503 |  96.9 |    85M |  95 | 737 | 552 | 400 | 656 |  1 | 282 |2302 | 9.451857e+03 | 8.844052e+03 |   6.87%|  55.42%
 65.4s|  3500 |   330 |347046 |  96.2 |    86M |  95 | 737 | 564 | 383 | 657 |  1 | 294 |2374 | 9.440229e+03 | 8.844052e+03 |   6.74%|  55.56%
 66.2s|  3600 |   334 |354420 |  95.6 |    86M |  95 | 737 | 570 | 396 | 659 |  0 | 300 |2429 | 9.432644e+03 | 8.844052e+03 |   6.66%|  55.67%
 67.1s|  3700 |   338 |360738 |  94.7 |    86M |  95 | 737 | 590 | 399 | 662 |  2 | 320 |2483 | 9.418576e+03 | 8.844052e+03 |   6.50%|  55.93%
 68.2s|  3800 |   346 |369178 |  94.5 |    86M |  95 | 737 | 600 | 396 | 676 |  1 | 331 |2519 | 9.416753e+03 | 8.844052e+03 |   6.48%|  56.09%
 69.1s|  3900 |   348 |376397 |  93.9 |    86M |  95 | 737 | 604 | 397 | 684 |  2 | 335 |2551 | 9.414377e+03 | 8.844052e+03 |   6.45%|  57.80%
 70.0s|  4000 |   352 |385355 |  93.8 |    86M |  95 | 737 | 616 | 397 | 684 |  1 | 348 |2614 | 9.414377e+03 | 8.844052e+03 |   6.45%|  57.99%
 70.8s|  4100 |   356 |391929 |  93.1 |    86M |  95 | 737 | 618 | 399 | 694 |  1 | 350 |2654 | 9.414377e+03 | 8.844052e+03 |   6.45%|  58.17%
 71.4s|  4200 |   358 |398438 |  92.4 |    86M |  95 | 737 | 624 | 383 | 696 |  0 | 356 |2697 | 9.397224e+03 | 8.844052e+03 |   6.25%|  58.26%
 72.9s|  4300 |   362 |405029 |  91.8 |    87M |  95 | 737 | 637 | 383 | 721 |  1 | 370 |2747 | 9.389418e+03 | 8.844052e+03 |   6.17%|  58.56%
 73.4s|  4400 |   364 |410585 |  91.0 |    87M |  95 | 737 | 638 | 376 | 723 |  0 | 372 |2778 | 9.388140e+03 | 8.844052e+03 |   6.15%|  59.01%
*74.4s|  4496 |   356 |416790 |  90.4 |    LP  |  95 | 737 | 643 | 387 | 735 |  1 | 378 |2827 | 9.375576e+03 | 8.850908e+03 |   5.93%|  59.72%
 time | node  | left  |LP iter|LP it/n|mem/heur|mdpt |vars |cons |rows |cuts |sepa|confs|strbr|  dualbound   | primalbound  |  gap   | compl. 
 74.4s|  4500 |   356 |417152 |  90.4 |    87M |  95 | 737 | 650 | 399 | 735 |  4 | 385 |2837 | 9.375576e+03 | 8.850908e+03 |   5.93%|  59.85%
 75.3s|  4600 |   360 |423436 |  89.8 |    87M |  95 | 737 | 657 | 400 | 740 |  1 | 392 |2886 | 9.375576e+03 | 8.850908e+03 |   5.93%|  60.68%
 76.2s|  4700 |   362 |429898 |  89.3 |    88M |  95 | 737 | 669 | 376 | 746 |  1 | 404 |2935 | 9.375576e+03 | 8.850908e+03 |   5.93%|  61.04%
 76.9s|  4800 |   370 |436913 |  88.9 |    88M |  97 | 737 | 682 | 383 | 749 |  1 | 417 |2988 | 9.374396e+03 | 8.850908e+03 |   5.91%|  61.20%
 77.5s|  4900 |   376 |443673 |  88.5 |    88M | 103 | 737 | 689 | 389 | 751 |  3 | 425 |3024 | 9.365996e+03 | 8.850908e+03 |   5.82%|  61.35%
 78.2s|  5000 |   376 |450309 |  88.0 |    88M | 103 | 737 | 694 | 399 | 756 |  0 | 430 |3054 | 9.363685e+03 | 8.850908e+03 |   5.79%|  61.81%
 78.6s|  5100 |   380 |454655 |  87.2 |    88M | 103 | 737 | 695 | 385 | 757 |  1 | 432 |3084 | 9.363685e+03 | 8.850908e+03 |   5.79%|  62.14%
*79.3s|  5168 |   357 |459487 |  86.9 |    LP  | 109 | 737 | 699 | 393 | 764 |  2 | 436 |3103 | 9.363685e+03 | 8.868696e+03 |   5.58%|  62.23%
*79.4s|  5173 |   276 |459582 |  86.9 |    LP  | 109 | 737 | 699 | 393 | 764 |  1 | 436 |3103 | 9.363685e+03 | 8.945976e+03 |   4.67%|  62.25%
*79.4s|  5176 |   274 |459683 |  86.8 |    LP  | 109 | 737 | 699 | 393 | 764 |  1 | 436 |3103 | 9.363685e+03 | 8.946346e+03 |   4.66%|  62.35%
 79.5s|  5200 |   274 |460683 |  86.6 |    86M | 109 | 737 | 699 | 397 | 765 |  0 | 436 |3107 | 9.363685e+03 | 8.946346e+03 |   4.66%|  62.51%
 80.5s|  5300 |   276 |466928 |  86.2 |    86M | 114 | 737 | 700 | 401 | 778 |  0 | 438 |3136 | 9.360244e+03 | 8.946346e+03 |   4.63%|  62.78%
 81.1s|  5400 |   278 |471169 |  85.4 |    86M | 123 | 737 | 703 | 385 | 784 |  3 | 442 |3159 | 9.353457e+03 | 8.946346e+03 |   4.55%|  63.08%
 81.7s|  5500 |   276 |475897 |  84.7 |    86M | 123 | 737 | 704 | 378 | 788 |  1 | 444 |3187 | 9.353457e+03 | 8.946346e+03 |   4.55%|  63.72%
 82.6s|  5600 |   278 |485006 |  84.8 |    86M | 123 | 737 | 705 | 400 | 800 |  2 | 447 |3207 | 9.352325e+03 | 8.946346e+03 |   4.54%|  64.27%
 time | node  | left  |LP iter|LP it/n|mem/heur|mdpt |vars |cons |rows |cuts |sepa|confs|strbr|  dualbound   | primalbound  |  gap   | compl. 
 83.3s|  5700 |   280 |491297 |  84.4 |    87M | 123 | 737 | 709 | 383 | 806 |  2 | 451 |3226 | 9.351386e+03 | 8.946346e+03 |   4.53%|  64.52%
 83.9s|  5800 |   282 |496971 |  83.9 |    87M | 123 | 737 | 714 | 386 | 812 |  1 | 458 |3263 | 9.349687e+03 | 8.946346e+03 |   4.51%|  64.81%
 84.4s|  5900 |   278 |501732 |  83.3 |    87M | 123 | 737 | 718 | 389 | 814 |  0 | 463 |3283 | 9.340327e+03 | 8.946346e+03 |   4.40%|  65.39%
 85.6s|  6000 |   280 |507397 |  82.9 |    87M | 123 | 737 | 718 | 383 | 835 |  1 | 463 |3301 | 9.340327e+03 | 8.946346e+03 |   4.40%|  65.83%
*85.7s|  6022 |   255 |508428 |  82.7 |    LP  | 123 | 737 | 716 | 388 | 837 |  3 | 463 |3306 | 9.340327e+03 | 8.962381e+03 |   4.22%|  66.07%
 86.1s|  6100 |   255 |512240 |  82.3 |    87M | 123 | 737 | 718 | 398 | 837 |  1 | 466 |3330 | 9.330427e+03 | 8.962381e+03 |   4.11%|  66.40%
 86.6s|  6200 |   251 |516348 |  81.6 |    87M | 123 | 737 | 721 | 400 | 845 |  1 | 470 |3345 | 9.330427e+03 | 8.962381e+03 |   4.11%|  67.08%
 87.3s|  6300 |   247 |521907 |  81.2 |    87M | 123 | 737 | 726 | 377 | 853 |  1 | 477 |3384 | 9.330427e+03 | 8.962381e+03 |   4.11%|  67.78%
 87.9s|  6400 |   245 |526928 |  80.7 |    87M | 123 | 737 | 729 | 381 | 856 |  0 | 480 |3398 | 9.327458e+03 | 8.962381e+03 |   4.07%|  68.45%
 88.3s|  6500 |   243 |531155 |  80.1 |    87M | 123 | 737 | 732 | 400 | 858 |  1 | 484 |3430 | 9.324888e+03 | 8.962381e+03 |   4.04%|  69.32%
 89.4s|  6600 |   247 |537037 |  79.8 |    90M | 123 | 737 | 737 | 379 | 876 |  1 | 489 |3463 | 9.323238e+03 | 8.962381e+03 |   4.03%|  69.90%
 89.9s|  6700 |   245 |540530 |  79.2 |    91M | 123 | 737 | 740 | 403 | 883 |  1 | 493 |3482 | 9.323238e+03 | 8.962381e+03 |   4.03%|  70.69%
 90.6s|  6800 |   241 |544653 |  78.6 |    93M | 123 | 737 | 740 | 399 | 896 |  0 | 493 |3496 | 9.321129e+03 | 8.962381e+03 |   4.00%|  71.46%
 91.2s|  6900 |   239 |549518 |  78.2 |    93M | 123 | 737 | 746 | 390 | 901 |  0 | 499 |3521 | 9.316199e+03 | 8.962381e+03 |   3.95%|  71.86%
 91.6s|  7000 |   241 |554847 |  77.8 |    93M | 123 | 737 | 746 | 401 | 902 |  0 | 501 |3545 | 9.305846e+03 | 8.962381e+03 |   3.83%|  72.21%
 time | node  | left  |LP iter|LP it/n|mem/heur|mdpt |vars |cons |rows |cuts |sepa|confs|strbr|  dualbound   | primalbound  |  gap   | compl. 
 92.0s|  7100 |   233 |558418 |  77.2 |    93M | 123 | 737 | 748 | 394 | 902 |  0 | 503 |3570 | 9.305846e+03 | 8.962381e+03 |   3.83%|  72.98%
 92.5s|  7200 |   237 |564629 |  77.0 |    93M | 123 | 737 | 750 | 394 | 903 |  0 | 505 |3590 | 9.304300e+03 | 8.962381e+03 |   3.82%|  73.09%
 93.0s|  7300 |   233 |568894 |  76.5 |    93M | 123 | 737 | 756 | 384 | 912 |  0 | 511 |3601 | 9.304300e+03 | 8.962381e+03 |   3.82%|  73.47%
 93.8s|  7400 |   229 |574203 |  76.2 |    93M | 123 | 737 | 756 | 401 | 922 |  1 | 513 |3631 | 9.288797e+03 | 8.962381e+03 |   3.64%|  74.31%
 94.1s|  7500 |   223 |577685 |  75.7 |    93M | 123 | 737 | 760 | 391 | 923 |  1 | 517 |3646 | 9.283679e+03 | 8.962381e+03 |   3.58%|  75.03%
 94.5s|  7600 |   223 |582110 |  75.3 |    93M | 123 | 737 | 759 | 383 | 924 |  0 | 518 |3659 | 9.283431e+03 | 8.962381e+03 |   3.58%|  75.65%
 95.0s|  7700 |   223 |586946 |  74.9 |    93M | 123 | 737 | 761 | 398 | 929 |  1 | 520 |3678 | 9.276383e+03 | 8.962381e+03 |   3.50%|  76.25%
 95.4s|  7800 |   221 |592295 |  74.6 |    93M | 123 | 737 | 763 | 407 | 930 |  1 | 522 |3692 | 9.276383e+03 | 8.962381e+03 |   3.50%|  76.64%
 96.0s|  7900 |   219 |596685 |  74.2 |    93M | 123 | 737 | 764 | 399 | 940 |  0 | 523 |3712 | 9.267866e+03 | 8.962381e+03 |   3.41%|  77.07%
 96.5s|  8000 |   215 |600422 |  73.8 |    93M | 123 | 737 | 763 | 402 | 945 |  0 | 525 |3738 | 9.267866e+03 | 8.962381e+03 |   3.41%|  77.61%
 97.2s|  8100 |   215 |604805 |  73.4 |    93M | 123 | 737 | 766 | 401 | 958 |  1 | 528 |3757 | 9.266566e+03 | 8.962381e+03 |   3.39%|  78.27%
 97.7s|  8200 |   207 |608180 |  72.9 |    93M | 123 | 737 | 767 | 382 | 964 |  1 | 530 |3777 | 9.266566e+03 | 8.962381e+03 |   3.39%|  79.29%
 98.3s|  8300 |   199 |612851 |  72.6 |    93M | 123 | 737 | 766 | 383 | 969 |  0 | 532 |3797 | 9.266566e+03 | 8.962381e+03 |   3.39%|  80.33%
 98.6s|  8400 |   195 |616944 |  72.2 |    93M | 123 | 737 | 766 | 381 | 969 |  0 | 533 |3813 | 9.252012e+03 | 8.962381e+03 |   3.23%|  81.18%
 99.1s|  8500 |   191 |621010 |  71.9 |    93M | 123 | 737 | 777 | 404 | 974 |  1 | 544 |3846 | 9.246260e+03 | 8.962381e+03 |   3.17%|  81.78%
 time | node  | left  |LP iter|LP it/n|mem/heur|mdpt |vars |cons |rows |cuts |sepa|confs|strbr|  dualbound   | primalbound  |  gap   | compl. 
 99.9s|  8600 |   183 |626838 |  71.7 |    93M | 123 | 737 | 788 | 401 | 981 |  0 | 555 |3907 | 9.235704e+03 | 8.962381e+03 |   3.05%|  83.13%
  100s|  8700 |   179 |631599 |  71.4 |    93M | 123 | 737 | 791 | 387 | 983 |  2 | 560 |3945 | 9.235704e+03 | 8.962381e+03 |   3.05%|  83.72%
  101s|  8800 |   167 |636412 |  71.2 |    93M | 123 | 737 | 806 | 401 | 983 |  1 | 575 |4009 | 9.232961e+03 | 8.962381e+03 |   3.02%|  84.71%
  102s|  8900 |   167 |642771 |  71.1 |    93M | 123 | 737 | 812 | 402 | 987 |  3 | 585 |4064 | 9.221197e+03 | 8.962381e+03 |   2.89%|  84.88%
  102s|  9000 |   157 |648166 |  70.9 |    92M | 123 | 737 | 824 | 386 | 989 |  1 | 599 |4129 | 9.217742e+03 | 8.962381e+03 |   2.85%|  86.25%
  103s|  9100 |   143 |653332 |  70.7 |    92M | 123 | 737 | 833 | 400 | 994 |  0 | 609 |4190 | 9.213272e+03 | 8.962381e+03 |   2.80%|  88.01%
  103s|  9200 |   127 |659414 |  70.6 |    93M | 123 | 737 | 848 | 387 | 997 |  0 | 626 |4273 | 9.203901e+03 | 8.962381e+03 |   2.69%|  89.13%
  104s|  9300 |   119 |663639 |  70.3 |    93M | 123 | 737 | 858 | 400 |1007 |  1 | 637 |4313 | 9.195142e+03 | 8.962381e+03 |   2.60%|  90.69%
  105s|  9400 |   111 |668699 |  70.1 |    93M | 123 | 737 | 873 | 389 |1024 |  1 | 653 |4385 | 9.176855e+03 | 8.962381e+03 |   2.39%|  91.75%
  106s|  9500 |    97 |674766 |  70.0 |    93M | 123 | 737 | 885 | 383 |1033 |  0 | 668 |4475 | 9.163200e+03 | 8.962381e+03 |   2.24%|  93.13%
  107s|  9600 |    77 |679451 |  69.7 |    93M | 123 | 737 | 899 | 402 |1043 |  2 | 683 |4539 | 9.159810e+03 | 8.962381e+03 |   2.20%|  94.58%
  108s|  9700 |    67 |684422 |  69.5 |    93M | 123 | 737 | 906 | 392 |1046 |  0 | 693 |4595 | 9.147967e+03 | 8.962381e+03 |   2.07%|  95.64%
  108s|  9800 |    53 |688842 |  69.2 |    93M | 123 | 737 | 915 | 385 |1046 |  0 | 708 |4669 | 9.144712e+03 | 8.962381e+03 |   2.03%|  96.82%
  109s|  9900 |    35 |692769 |  68.9 |    93M | 123 | 737 | 925 | 401 |1049 |  1 | 718 |4717 | 9.139130e+03 | 8.962381e+03 |   1.97%|  98.07%
  109s| 10000 |    17 |696625 |  68.6 |    93M | 123 | 737 | 929 | 394 |1049 |  0 | 725 |4771 | 9.106530e+03 | 8.962381e+03 |   1.61%|  99.38%

SCIP Status        : problem is solved [optimal solution found]
Solving Time (sec) : 109.61
Solving Nodes      : 10065
Primal Bound       : +8.96238136362691e+03 (433 solutions)
Dual Bound         : +8.96238136362691e+03
Gap                : 0.00 %
Solve Status: optimal
Solve Time: 109.61 seconds
